9
2147483647 37 1 77 71 97 89 11 90 
37 2147483647 57 62 97 37 64 98 86 
1 57 2147483647 88 95 40 68 40 23 
77 62 88 2147483647 6 22 33 13 17 
71 97 95 6 2147483647 100 36 34 79 
97 37 40 22 100 2147483647 45 48 89 
89 64 68 33 36 45 2147483647 68 2 
11 98 40 13 34 48 68 2147483647 66 
90 86 23 17 79 89 2 66 2147483647 
